50
    98    71    30    40    65    85    32    14    55    50    50    59    86    24    84    78    69    79    77    39     3     3    11    76    79   100    10    87    79    91    39    39    74    10     2    61    27     8    44    50    91    52    52    68    10    24    52    42    19    21
     4     9     2     3     2     9     1    10     2     3     1     2     8     3    10     3     9     4    10     7     5     5     2     7     1    10     3     6    10     8     9     7    10     3     1     2     9     4    10     2     2     4    10    10     9    10     6     6     8     5
  1617  2304  2146  1747  1925  2082  2073  1981  1887  2101  2451  2465  2463  2017  2115  1817  2317  1754  2074  2286  2366  2088  2283  2080  1796  1749  1920  2223  1604  2013  2178  1889  1624  1792  1539  2255  2057  2234  1560  1834  2507  1809  2149  2330  2506  1910  2347  1972  1549  1943
